Welcome to the CBC MILP Solver 
Version: 2.10.3 
Build Date: Dec 15 2019 

command line - /work/zhang-x2/users/yc2632/miniconda3/envs/newpt2/lib/python3.9/site-packages/pulp/solverdir/cbc/linux/64/cbc /tmp/34f540c172ce4a35ba33ef3b35ba5f6e-pulp.mps sec 900 timeMode elapsed branch printingOptions all solution /tmp/34f540c172ce4a35ba33ef3b35ba5f6e-pulp.sol (default strategy 1)
At line 2 NAME          MODEL
At line 3 ROWS
At line 162708 COLUMNS
At line 11769350 RHS
At line 11932054 BOUNDS
At line 11951709 ENDATA
Problem MODEL has 162703 rows, 19654 columns and 11559423 elements
Coin0008I MODEL read with 0 errors
seconds was changed from 1e+100 to 900
Option for timeMode changed from cpu to elapsed
Continuous objective value is 380 - 3.27 seconds
Cgl0003I 0 fixed, 0 tightened bounds, 7040 strengthened rows, 0 substitutions
Cgl0003I 0 fixed, 0 tightened bounds, 2 strengthened rows, 0 substitutions
Cgl0004I processed model has 56665 rows, 17557 columns (15080 integer (15080 of which binary)) and 7286651 elements
Cbc0038I Initial state - 4 integers unsatisfied sum - 2
Cbc0038I Pass   1: (19.35 seconds) suminf.    0.00000 (0) obj. 12910 iterations 248
Cbc0038I Solution found of 12910
Cbc0038I Relaxing continuous gives 12910
Cbc0038I Before mini branch and bound, 15074 integers at bound fixed and 2473 continuous
Cbc0038I Full problem 56665 rows 17557 columns, reduced to 2 rows 4 columns
Cbc0038I Mini branch and bound improved solution from 12910 to 1050 (21.13 seconds)
Cbc0038I After 21.53 seconds - Feasibility pump exiting with objective of 1050 - took 2.14 seconds
Cbc0012I Integer solution of 1050 found by feasibility pump after 0 iterations and 0 nodes (21.61 seconds)
Cbc0001I Search completed - best objective 1050, took 0 iterations and 0 nodes (22.01 seconds)
Cbc0035I Maximum depth 0, 0 variables fixed on reduced cost
Cuts at root node changed objective from 1050 to 1050
Probing was tried 0 times and created 0 cuts of which 0 were active after adding rounds of cuts (0.000 seconds)
Gomory was tried 0 times and created 0 cuts of which 0 were active after adding rounds of cuts (0.000 seconds)
Knapsack was tried 0 times and created 0 cuts of which 0 were active after adding rounds of cuts (0.000 seconds)
Clique was tried 0 times and created 0 cuts of which 0 were active after adding rounds of cuts (0.000 seconds)
MixedIntegerRounding2 was tried 0 times and created 0 cuts of which 0 were active after adding rounds of cuts (0.000 seconds)
FlowCover was tried 0 times and created 0 cuts of which 0 were active after adding rounds of cuts (0.000 seconds)
TwoMirCuts was tried 0 times and created 0 cuts of which 0 were active after adding rounds of cuts (0.000 seconds)
ZeroHalf was tried 0 times and created 0 cuts of which 0 were active after adding rounds of cuts (0.000 seconds)

Result - Optimal solution found

Objective value:                1050.00000000
Enumerated nodes:               0
Total iterations:               0
Time (CPU seconds):             20.10
Time (Wallclock seconds):       24.17

Option for printingOptions changed from normal to all
Total time (CPU seconds):       22.04   (Wallclock seconds):       26.31

Root classes: ['12']
Status: Optimal
Solved x values:
['0.420', '2268.0', '2516.0', '13478.0', '40948.0', '24558.0', '611.0', '17246.0', '1240.0', '17110.0', '31728.0', '17485.0', '76.0', '200.0', '70.0', '64.0', '188.0', '17310.0', '22.0', '2535.0', '10.0', '7.0', '4.0', '1.0', '40955.0', '17253.0', '615.0', '17114.0', '40931.0', '600.0', '49858.0', '49855.0', '17314.0', '44.0', '17302.0', '35.0', '23.0', '2539.0', '17.0', '11.41', '2279.0', '8.176', '2527.0', '5.0', '2.0', '17118.0', '604.0', '5261.0', '1732.80', '17106.0', '17481.0', '17345.0', '72.0', '41029.0', '2083.0', '17306.0', '41377.0', '12.0', '2531.0', '9.0', '6.286', '17902.0', '3.0', '48901.0']
